c A SAT instance generated from a 2-CNF formula that had 23 clauses and 7 variables
p cnf 7 23
1 7 0
5 6 0
5 -1 0
-5 -4 0
3 -4 0
-7 3 0
-1 -2 0
5 -7 0
4 7 0
-7 1 0
1 4 0
1 -5 0
-4 -3 0
-7 2 0
6 -7 0
-3 -6 0
3 -6 0
5 -7 0
-7 -1 0
6 7 0
-4 7 0
4 -7 0
-3 5 0
